NAME: ./prFile/tspFile/tsp_file68.tsp
COMMENT: TSP file generated by Python
TYPE: TSP
DIMENSION: 40
EDGE_WEIGHT_TYPE: EUC_2D
NODE_COORD_SECTION
1 54 36
2 8 83
3 35 74
4 45 70
5 99 5
6 90 96
7 2 71
8 6 98
9 77 32
10 35 21
11 46 30
12 31 77
13 12 59
14 56 64
15 56 81
16 14 11
17 58 68
18 81 26
19 64 6
20 15 95
21 69 66
22 12 1
23 40 53
24 48 10
25 81 92
26 27 100
27 92 54
28 85 97
29 44 33
30 30 22
31 49 48
32 12 64
33 38 71
34 1 41
35 59 58
36 48 65
37 35 30
38 50 40
39 80 61
40 19 53
EOF
